p td 22 213
2 1
3 2
3 1
4 1
4 3
4 2
5 1
5 3
5 4
5 2
6 4
6 2
6 3
6 1
7 5
7 1
7 2
7 3
7 6
7 4
8 6
8 5
8 1
8 3
8 7
8 2
9 7
9 8
9 6
9 2
9 3
9 5
9 4
10 8
10 4
10 6
10 9
10 5
10 2
10 3
10 1
10 7
11 7
11 5
11 6
11 10
11 4
11 2
11 9
11 8
11 1
11 3
12 6
12 9
12 3
12 7
12 1
12 8
13 4
13 12
13 1
13 3
13 8
13 11
13 6
13 9
13 10
13 5
13 7
13 2
14 3
14 1
14 13
14 11
14 9
14 5
14 4
14 7
14 10
14 12
14 8
14 2
15 14
15 6
15 12
15 5
15 13
15 4
15 9
15 7
15 8
15 3
15 10
15 1
15 11
15 2
16 7
16 3
16 13
16 4
16 12
16 15
16 2
16 14
16 1
16 9
16 5
16 11
16 10
17 16
17 15
17 4
17 10
17 3
17 14
17 13
17 8
17 9
17 11
17 5
17 6
17 12
17 2
17 7
18 9
18 6
18 2
18 7
18 5
18 12
18 8
18 11
18 14
18 1
18 17
18 4
18 3
18 16
18 10
19 12
19 1
19 18
19 6
19 7
19 17
19 10
19 5
19 2
19 15
19 9
19 11
19 4
19 16
19 3
19 13
19 8
19 14
20 12
20 6
20 8
20 17
20 10
20 2
20 15
20 11
20 19
20 3
20 16
20 4
20 9
20 1
20 14
20 5
20 18
20 13
21 13
21 9
21 17
21 11
21 6
21 1
21 20
21 15
21 2
21 4
21 16
21 3
21 19
21 12
21 8
21 7
21 18
21 5
21 14
21 10
22 7
22 20
22 2
22 18
22 15
22 14
22 1
22 10
22 4
22 17
22 19
22 6
22 12
22 11
22 5
22 9
22 8
22 16
